! bt-PNO-IP-EOM-CCSD cc-pVTZ cc-pVTZ/C ExtremeSCF TightPNO NoFrozenCore

%pal nprocs 16 end

%maxcore 4000

%output Print[P_ReducedOrbPopMO_L] 1 end

%mdci
 NRoots 4
 DTol 1e-7
 CVSOrb 5,8
 CVSEP true
 DoCVS true
 DoCore true
 corehole 5
 maxiter 500
end

* xyz 0 1
  C           2.70260032347217      0.68952349030149     -0.14592768236111
  H           3.67034545399967      1.19191221987046     -0.17598134898952
  H           2.68629433984177      0.02628304888467      0.71916788744625
  H           2.59906084239523      0.08769509815457     -1.04890893397194
  C           1.60641458154360      1.71931034005214     -0.05483968143416
  H           1.68120661791805      2.32597118764165      0.84883910424036
  H           1.59754826590271      2.39150763260952     -0.91441240484647
  O           0.34704684121517      1.01398918090280     -0.02234077891340
  C          -0.73408351572760      1.76016104784664      0.08686332068527
  O          -0.78645427363488      2.94977308234048      0.16447181700541
  C          -1.99380771774607      0.85848814585631      0.08984947806136
  F          -1.90661377868314     -0.07616663944954      1.03866910357774
  F          -3.08071513781628      1.58035248776727      0.30936367839100
  F          -2.12310784268042      0.24463067722154     -1.08987155889080
*
