! UHF def2-TZVPD DeltaSCF NoDIIS MORead

%pal nprocs 4 end

%moinp "scf.hf.gbw"

%scf
 ionizealpha 5
end

* xyzfile 0 1 opt.xyz
