! B97 def2-TZVPD def2/J

%pal nprocs 4 end

%output Print[P_ReducedOrbPopMO_L] 1 end

* xyzfile 0 1 opt.xyz
