! UKS B97 def2-TZVPD def2/J DeltaSCF NoDIIS MORead

%pal nprocs 4 end

%moinp "scf.b97.gbw"

%scf
 ionizealpha 7
end

* xyzfile 0 1 opt.xyz
