! wB97x-D3 def2-SVP def2/J Opt

%pal nprocs 4 end

%geom
 scan
  B 8 10 = 1.5, 3.5, 11
 end
end

* xyzfile 0 1 opt.xyz
