! RHF def2-TZVPD

%pal nprocs 4 end

%output Print[P_ReducedOrbPopMO_L] 1 end

* xyz 0 1
  C       0.000    0.000    0.000
  O       1.163    0.000    0.000
  O      -1.163    0.000    0.000
*
