! wB97x-D3 def2-TZVP def2/J Opt

%pal nprocs 4 end

* xyz 0 1
C      2.708345    0.710713    0.098390
H      3.676431    1.194739    0.009403
H      2.578383    0.362158    1.119313
H      2.675842   -0.146101   -0.568298
C      1.616247    1.696675   -0.265033
H      1.601435    2.559062    0.408659
H      1.728822    2.056696   -1.292577
O      0.348567    1.019869   -0.171099
C     -0.719008    1.758338   -0.005284
O     -0.783973    2.949402    0.076469
C     -1.989036    0.855366    0.080087
F     -1.697093   -0.446661    0.072267
F     -2.676495    1.104908    1.197645
F     -2.802732    1.088267   -0.955000
*
